networks/zoo_29_37/zoo_29_37.sol
<?xml version = "1.0" encoding="UTF-8" standalone="yes"?>
<CPLEXSolution version="1.2">
 <header
   problemName="networks/zoo_29_37/zoo_29_37.lp"
   solutionName="incumbent"
   solutionIndex="-1"
   objectiveValue="11"
   solutionTypeValue="3"
   solutionTypeString="primal"
   solutionStatusValue="101"
   solutionStatusString="integer optimal solution"
   solutionMethodString="mip"
   primalFeasible="1"
   dualFeasible="1"
   MIPNodes="0"
   MIPIterations="351"
   writeLevel="3"/>
 <quality
   epInt="1.0000000000000001e-05"
   epRHS="9.9999999999999995e-07"
   maxIntInfeas="0"
   maxPrimalInfeas="1.7763568394002505e-15"
   maxX="4"
   maxSlack="10"/>
 <variables>
  <variable name="Y(2,6)" index="26" value="1"/>
  <variable name="Y(3,7)" index="48" value="1"/>
  <variable name="Y(5,12)" index="95" value="1"/>
  <variable name="Y(7,4)" index="129" value="1"/>
  <variable name="Y(11,10)" index="219" value="1"/>
  <variable name="Y(15,9)" index="302" value="1"/>
  <variable name="Y(17,11)" index="346" value="1"/>
  <variable name="Y(27,14)" index="559" value="1"/>
  <variable name="Y(28,1)" index="567" value="1"/>
  <variable name="Y(33,5)" index="676" value="1"/>
  <variable name="Y(34,13)" index="705" value="1"/>
  <variable name="X(1,14,2)" index="778" value="1"/>
  <variable name="X(1,16,28)" index="841" value="1"/>
  <variable name="X(2,6,11)" index="861" value="1"/>
  <variable name="X(3,2,11)" index="898" value="1"/>
  <variable name="X(3,4,7)" index="931" value="1"/>
  <variable name="X(4,1,7)" index="968" value="1"/>
  <variable name="X(5,6,2)" index="1000" value="1"/>
  <variable name="X(5,14,27)" index="1062" value="1"/>
  <variable name="X(5,20,33)" index="1105" value="1"/>
  <variable name="X(6,5,33)" index="1142" value="1"/>
  <variable name="X(6,9,11)" index="1157" value="1"/>
  <variable name="X(6,21,2)" index="1185" value="1"/>
  <variable name="X(7,22,3)" index="1223" value="1"/>
  <variable name="X(8,7,3)" index="1260" value="1"/>
  <variable name="X(9,6,33)" index="1327" value="1"/>
  <variable name="X(9,8,15)" index="1346" value="1"/>
  <variable name="X(9,10,11)" index="1379" value="1"/>
  <variable name="X(10,9,33)" index="1438" value="1"/>
  <variable name="X(10,11,17)" index="1459" value="1"/>
  <variable name="X(10,25,11)" index="1490" value="1"/>
  <variable name="X(11,10,33)" index="1549" value="1"/>
  <variable name="X(11,26,17)" index="1570" value="1"/>
  <variable name="X(12,8,3)" index="1593" value="1"/>
  <variable name="X(12,11,5)" index="1632" value="1"/>
  <variable name="X(12,13,34)" index="1698" value="1"/>
  <variable name="X(13,12,5)" index="1706" value="1"/>
  <variable name="X(13,14,34)" index="1772" value="1"/>
  <variable name="X(14,1,28)" index="1803" value="1"/>
  <variable name="X(14,5,2)" index="1814" value="1"/>
  <variable name="X(14,13,5)" index="1854" value="1"/>
  <variable name="X(14,29,27)" index="1913" value="1"/>
  <variable name="C(2,14)" index="1928" value="1"/>
  <variable name="C(2,5)" index="1929" value="1.9999999999999982"/>
  <variable name="C(2,6)" index="1930" value="2.9999999999999982"/>
  <variable name="C(3,8)" index="1935" value="1"/>
  <variable name="C(3,7)" index="1936" value="2"/>
  <variable name="C(5,13)" index="1945" value="1"/>
  <variable name="C(5,12)" index="1946" value="2"/>
  <variable name="C(7,4)" index="1952" value="1"/>
  <variable name="C(11,2)" index="1968" value="1"/>
  <variable name="C(11,6)" index="1969" value="2"/>
  <variable name="C(11,9)" index="1970" value="3"/>
  <variable name="C(11,10)" index="1971" value="4"/>
  <variable name="C(17,11)" index="1996" value="1"/>
  <variable name="C(27,14)" index="2026" value="0.99999999999999978"/>
  <variable name="C(28,1)" index="2032" value="1"/>
  <variable name="C(33,10)" index="2047" value="1"/>
  <variable name="C(33,9)" index="2048" value="2"/>
  <variable name="C(33,6)" index="2049" value="3"/>
  <variable name="C(33,5)" index="2050" value="4"/>
  <variable name="C(34,13)" index="2052" value="1"/>
 </variables>
</CPLEXSolution>
